WARNING: for repeatability, setting FPU to use double precision
============================[ Problem Statistics ]=============================
|                                                                             |
|  Number of variables:           100                                         |
|  Number of clauses:             449                                         |
|  Parse time:                   0.00 s                                       |
|  Eliminated clauses:           0.00 Mb                                      |
|  Simplification time:          0.00 s                                       |
|                                                                             |
============================[ Search Statistics ]==============================
| Conflicts |          ORIGINAL         |          LEARNT          | Progress |
|           |    Vars  Clauses Literals |    Limit  Clauses Lit/Cl |          |
===============================================================================
|       100 |      97      439     1329 |      160      100      7 |  0.010 % |
|       250 |      97      439     1329 |      177      160      5 |  0.090 % |
===============================================================================
restarts              : 3
conflicts             : 390            (97354 /sec)
decisions             : 484            (0.00 % random) (120819 /sec)
propagations          : 8487           (2118572 /sec)
conflict literals     : 2250           (22.33 % deleted)
Memory used           : 13.00 MB
CPU time              : 0.004006 s

SATISFIABLE
